66257.0
6, 10, 23, 38, 48, 53, 60, 78, 82, 134, 151, 189, 196, 216, 245, 249, 266, 273, 281, 287, 379, 382, 419, 426, 452, 455, 494, 498, 549, 585, 592, 593, 603, 612, 645, 658, 703, 723, 736, 750, 775, 786, 824, 828, 855, 882, 886, 937, 967, 984, 992, 1048, 1057, 1065, 1096, 1099, 1106, 1114, 1117, 1136, 1138, 1143, 1153, 1158, 1175, 1199, 1206, 1237, 1242, 1246, 1248, 1253, 1258, 1260, 1329, 1340, 1343, 1344, 1353, 1361, 1394, 1400, 1408, 1431, 1457, 1460, 1467, 1472, 1475, 1483, 1507, 1547, 1548, 1581, 1591, 1604, 1617, 1619, 1654, 1667, 1672, 1692, 1713, 1729, 1761, 1770, 1808, 1863, 1864, 1873, 1915, 1919, 1961, 1975, 1997